p cnf 85 180
-58 -68 -45 0
-27 -68 -45 0
-27 -58 -45 0
-27 -58 -68 0
-17 -9 -14 0
-28 -9 -14 0
-28 -17 -14 0
-28 -17 -9 0
-25 -18 -59 0
-37 -18 -59 0
-37 -25 -59 0
-37 -25 -18 0
-4 -7 -1 0
-22 -7 -1 0
-22 -4 -1 0
-22 -4 -7 0
-33 -40 -36 0
-35 -40 -36 0
-35 -33 -36 0
-35 -33 -40 0
-8 -19 -53 0
-41 -19 -53 0
-41 -8 -53 0
-41 -8 -19 0
-5 -42 -24 0
-26 -42 -24 0
-26 -5 -24 0
-26 -5 -42 0
-43 -29 -13 0
-31 -29 -13 0
-31 -43 -13 0
-31 -43 -29 0
-3 -51 -6 0
-81 -51 -6 0
-81 -3 -6 0
-81 -3 -51 0
-78 -15 -44 0
-80 -15 -44 0
-80 -78 -44 0
-80 -78 -15 0
-32 -11 -30 0
-82 -11 -30 0
-82 -32 -30 0
-82 -32 -11 0
-74 -20 -38 0
-55 -20 -38 0
-55 -74 -38 0
-55 -74 -20 0
-47 -21 -10 0
-69 -21 -10 0
-69 -47 -10 0
-69 -47 -21 0
-23 -56 -16 0
-52 -56 -16 0
-52 -23 -16 0
-52 -23 -56 0
-60 -62 -48 0
-61 -62 -48 0
-61 -60 -48 0
-61 -60 -62 0
-49 -75 -57 0
-50 -75 -57 0
-50 -49 -57 0
-50 -49 -75 0
-12 -2 -54 0
-71 -2 -54 0
-71 -12 -54 0
-71 -12 -2 0
-70 -65 -67 0
-84 -65 -67 0
-84 -70 -67 0
-84 -70 -65 0
-76 -39 -46 0
-77 -39 -46 0
-77 -76 -46 0
-77 -76 -39 0
-85 -63 -72 0
-73 -63 -72 0
-73 -85 -72 0
-73 -85 -63 0
-64 -79 -34 0
-64 -79 -83 0
-64 -79 -66 0
-64 -34 -83 0
-64 -34 -66 0
-64 -83 -66 0
-79 -34 -83 0
-79 -34 -66 0
-79 -83 -66 0
-34 -83 -66 0
15 11 4 0
27 11 4 0
27 15 4 0
27 15 11 0
7 33 18 0
9 33 18 0
9 7 18 0
9 7 33 0
44 49 61 0
37 49 61 0
37 44 61 0
37 44 49 0
8 63 48 0
22 63 48 0
22 8 48 0
22 8 63 0
2 1 5 0
3 1 5 0
3 2 5 0
3 2 1 0
36 24 60 0
52 24 60 0
52 36 60 0
52 36 24 0
16 19 20 0
10 19 20 0
10 16 20 0
10 16 19 0
34 50 39 0
35 50 39 0
35 34 39 0
35 34 50 0
46 31 28 0
47 31 28 0
47 46 28 0
47 46 31 0
23 30 25 0
13 30 25 0
13 23 25 0
13 23 30 0
12 6 32 0
14 6 32 0
14 12 32 0
14 12 6 0
66 38 59 0
71 38 59 0
71 66 59 0
71 66 38 0
62 70 17 0
45 70 17 0
45 62 17 0
45 62 70 0
58 54 57 0
41 54 57 0
41 58 57 0
41 58 54 0
74 77 72 0
51 77 72 0
51 74 72 0
51 74 77 0
69 83 42 0
82 83 42 0
82 69 42 0
82 69 83 0
68 64 85 0
43 64 85 0
43 68 85 0
43 68 64 0
26 80 76 0
53 80 76 0
53 26 76 0
53 26 80 0
84 56 81 0
79 56 81 0
79 84 81 0
79 84 56 0
75 55 29 0
67 55 29 0
67 75 29 0
67 75 55 0
78 21 73 0
78 21 65 0
78 21 40 0
78 73 65 0
78 73 40 0
78 65 40 0
21 73 65 0
21 73 40 0
21 65 40 0
73 65 40 0
